(set-logic QF_LRA)
(declare-fun X0 () Real )
(declare-fun Y0 () Real )
(declare-fun X1 () Real )
(declare-fun Y1 () Real )
(declare-fun X2 () Real )
(declare-fun Y2 () Real )
(declare-fun X3 () Real )
(declare-fun Y3 () Real )
(declare-fun X4 () Real )
(declare-fun Y4 () Real )
(declare-fun X5 () Real )
(declare-fun Y5 () Real )
(declare-fun Z () Real )
(declare-fun k () Real )
(assert (let
(( $goal (>= Z k) ))
(let
((
$phi ( and 
( or ( <= ( + X0 41 ) X1 )  ( <= ( + X1 16 ) X0 )  ( <= ( + Y0 59 ) Y1 )  ( <= ( + Y1 13 ) Y0 )  )
( or ( <= ( + X0 41 ) X2 )  ( <= ( + X2 69 ) X0 )  ( <= ( + Y0 59 ) Y2 )  ( <= ( + Y2 80 ) Y0 )  )
( or ( <= ( + X0 41 ) X3 )  ( <= ( + X3 12 ) X0 )  ( <= ( + Y0 59 ) Y3 )  ( <= ( + Y3 30 ) Y0 )  )
( or ( <= ( + X0 41 ) X4 )  ( <= ( + X4 73 ) X0 )  ( <= ( + Y0 59 ) Y4 )  ( <= ( + Y4 21 ) Y0 )  )
( or ( <= ( + X0 41 ) X5 )  ( <= ( + X5 92 ) X0 )  ( <= ( + Y0 59 ) Y5 )  ( <= ( + Y5 33 ) Y0 )  )
( or ( <= ( + X1 16 ) X2 )  ( <= ( + X2 69 ) X1 )  ( <= ( + Y1 13 ) Y2 )  ( <= ( + Y2 80 ) Y1 )  )
( or ( <= ( + X1 16 ) X3 )  ( <= ( + X3 12 ) X1 )  ( <= ( + Y1 13 ) Y3 )  ( <= ( + Y3 30 ) Y1 )  )
( or ( <= ( + X1 16 ) X4 )  ( <= ( + X4 73 ) X1 )  ( <= ( + Y1 13 ) Y4 )  ( <= ( + Y4 21 ) Y1 )  )
( or ( <= ( + X1 16 ) X5 )  ( <= ( + X5 92 ) X1 )  ( <= ( + Y1 13 ) Y5 )  ( <= ( + Y5 33 ) Y1 )  )
( or ( <= ( + X2 69 ) X3 )  ( <= ( + X3 12 ) X2 )  ( <= ( + Y2 80 ) Y3 )  ( <= ( + Y3 30 ) Y2 )  )
( or ( <= ( + X2 69 ) X4 )  ( <= ( + X4 73 ) X2 )  ( <= ( + Y2 80 ) Y4 )  ( <= ( + Y4 21 ) Y2 )  )
( or ( <= ( + X2 69 ) X5 )  ( <= ( + X5 92 ) X2 )  ( <= ( + Y2 80 ) Y5 )  ( <= ( + Y5 33 ) Y2 )  )
( or ( <= ( + X3 12 ) X4 )  ( <= ( + X4 73 ) X3 )  ( <= ( + Y3 30 ) Y4 )  ( <= ( + Y4 21 ) Y3 )  )
( or ( <= ( + X3 12 ) X5 )  ( <= ( + X5 92 ) X3 )  ( <= ( + Y3 30 ) Y5 )  ( <= ( + Y5 33 ) Y3 )  )
( or ( <= ( + X4 73 ) X5 )  ( <= ( + X5 92 ) X4 )  ( <= ( + Y4 21 ) Y5 )  ( <= ( + Y5 33 ) Y4 )  )
( >= X0 0)
( <= ( + X0 41) Z)
( >= Y0 0)
( <= ( + Y0 59 ) 100)
( >= X1 0)
( <= ( + X1 16) Z)
( >= Y1 0)
( <= ( + Y1 13 ) 100)
( >= X2 0)
( <= ( + X2 69) Z)
( >= Y2 0)
( <= ( + Y2 80 ) 100)
( >= X3 0)
( <= ( + X3 12) Z)
( >= Y3 0)
( <= ( + Y3 30 ) 100)
( >= X4 0)
( <= ( + X4 73) Z)
( >= Y4 0)
( <= ( + Y4 21 ) 100)
( >= X5 0)
( <= ( + X5 92) Z)
( >= Y5 0)
( <= ( + Y5 33 ) 100)
) )
)(=> $phi $goal))))